
(set-logic ALL) 

(declare-datatype MyList ((Nil) (Cons (head Real) (tail MyList)) )) 
(declare-fun l0 () MyList) 
(declare-fun l1 () MyList) 
(declare-fun l2 () MyList) 
(declare-fun l3 () MyList) 
(declare-fun i0 () Real) 
(declare-fun i1 () Real) 
(assert (not (= l0 Nil)) )
(assert (is-Nil Nil) )
(assert (or (= l1 l3) (= l0 Nil) (is-Cons l1)) )
(assert (is-Cons Nil) )
(assert (is-Nil Nil) )
(assert (not (is-Nil Nil)) )
(assert (or (= l1 l3) (= l3 l0) (= l2 l0) (= l3 Nil)) )
(assert (and (is-Cons Nil) (is-Cons Nil)) )
(check-sat)
